NAME : TSP_INST.7990961.tour
COMMENT : Length = 7990961
COMMENT : Found by LKH [Keld Helsgaun] Sat Oct 18 11:07:53 2025
TYPE : TOUR
DIMENSION : 100
TOUR_SECTION
1
56
86
92
74
21
34
33
6
44
29
91
42
95
100
78
64
83
84
9
89
23
80
35
14
55
40
53
85
18
19
65
5
90
4
39
87
41
68
88
24
98
13
52
62
58
8
96
25
27
38
54
76
36
66
32
2
63
22
16
26
69
48
60
11
10
73
51
30
37
79
31
57
20
46
3
97
82
81
43
70
15
72
75
93
47
12
50
17
45
7
28
94
71
67
99
61
49
59
77
-1
EOF
